\* Problem: Unknown *\

Maximize
 obj: + Mo2c

Subject To
 R("R_GAPD"): - Mpic + Mnadhc - Mnadc + Mhc - Mg3pc + M13dpgc = 0
 R("R_PGK"): - Matpc + Madpc - M3pgc + M13dpgc = 0
 R("R_ENO"): + Mpepc + Mh2oc - M2pgc = 0
 R("R_PGM"): + M3pgc - M2pgc = 0
 R("R_GND"): + Mru5pDc + Mnadphc - Mnadpc + Mco2c - M6pgcc = 0
 R("R_PGL"): + Mhc - Mh2oc - M6pglc + M6pgcc = 0
 R("R_G6PDH2r"): + Mnadphc - Mnadpc + Mhc - Mg6pc + M6pglc = 0
 R("R_ACKr"): - Matpc + Madpc + Mactpc - Macc = 0
 R("R_ACt2r"): + Mhc + Macc = 0
 R("R_ADHEr"): - 2 Mnadhc + 2 Mnadc - 2 Mhc + Metohc + Mcoac - Maccoac
 = 0
 R("R_CS"): - Moaac + Mhc - Mh2oc + Mcoac + Mcitc - Maccoac = 0
 R("R_MALS"): + MmalLc + Mhc - Mh2oc - Mglxc + Mcoac - Maccoac = 0
 R("R_PDH"): - Mpyrc + Mnadhc - Mnadc - Mcoac + Mco2c + Maccoac = 0
 R("R_PFL"): - Mpyrc + Mforc - Mcoac + Maccoac = 0
 R("R_PTAr"): - Mpic + Mcoac + Mactpc - Maccoac = 0
 R("R_ADK1"): - Matpc - Mampc + 2 Madpc = 0
 R("R_ATPM"): + Mpic + Mhc - Mh2oc - Matpc + Madpc = 0
 R("R_ATPS4r"): - Mpic + 3 Mhc + Mh2oc + Matpc - Madpc = 0
 R("R_PFK"): + Mhc + Mfdpc - Mf6pc - Matpc + Madpc = 0
 R("R_PPCK"): + Mpepc - Moaac + Mco2c - Matpc + Madpc = 0
 R("R_PYK"): + Mpyrc - Mpepc - Mhc + Matpc - Madpc = 0
 R("R_SUCOAS"): + Msuccoac - Msuccc + Mpic - Mcoac - Matpc + Madpc = 0
 R("R_AKGDH"): + Msuccoac + Mnadhc - Mnadc - Mcoac + Mco2c - Makgc = 0
 R("R_AKGt2r"): + Mhc + Makgc = 0
 R("R_ICDHyr"): + Mnadphc - Mnadpc - Micitc + Mco2c + Makgc = 0
 R("R_PPS"): - Mpyrc + Mpic + Mpepc + 2 Mhc - Mh2oc - Matpc + Mampc = 0
 R("R_ACONT"): + Micitc - Mcitc = 0
\ R("R_CO2t"): + Mco2c = 0
 R("R_ME1"): + Mpyrc + Mnadhc - Mnadc - MmalLc + Mco2c = 0
 R("R_ME2"): + Mpyrc + Mnadphc - Mnadpc - MmalLc + Mco2c = 0
 R("R_PPC"): + Mpic - Mpepc + Moaac + Mhc - Mh2oc - Mco2c = 0
 R("R_FBA"): + Mg3pc - Mfdpc + Mdhapc = 0
 R("R_TPI"): + Mg3pc - Mdhapc = 0
 R("R_TALA"): - Ms7pc - Mg3pc + Mf6pc + Me4pc = 0
 R("R_TKT2"): - Mxu5pDc + Mg3pc + Mf6pc - Me4pc = 0
 R("R_ETOHt2r"): + Mhc + Metohc = 0
 R("R_FBP"): + Mpic - Mh2oc - Mfdpc + Mf6pc = 0
 R("R_PGI"): - Mg6pc + Mf6pc = 0
 R("R_FRD"): + Msuccc - Mfumc - Mfadh2c + Mfadc = 0
 R("R_SUCD1i"): - Msuccc + Mfumc + Mfadh2c - Mfadc = 0
 R("R_SUCD4"): + Mq8h2c - Mq8c - Mfadh2c + Mfadc = 0
\ R("R_FORt"): + Mforc = 0
 R("R_FUM"): + MmalLc - Mh2oc - Mfumc = 0
 R("R_FUMt2_2"): + 2 Mhc + Mfumc = 0
 R("R_TKT1"): - Mxu5pDc + Ms7pc - Mr5pc + Mg3pc = 0
 R("R_GLCpts"): + Mpyrc - Mpepc + Mg6pc = 0
 R("R_ICL"): + Msuccc - Micitc + Mglxc = 0
 R("R_CYTBD"): - Mq8h2c + Mq8c - 0.5 Mo2c - 2 Mhc + Mh2oc = 0
\ R("R_H2Ot"): + Mh2oc = 0
 R("R_D_LACt2"): + MlacDc + Mhc = 0
 R("R_LDH_D"): + Mpyrc + Mnadhc - Mnadc - MlacDc + Mhc = 0
 R("R_MDH"): + Moaac + Mnadhc - Mnadc - MmalLc + Mhc = 0
 R("R_NADH11"): + Mq8h2c - Mq8c - Mnadhc + Mnadc - 3 Mhc = 0
 R("R_PYRt2r"): + Mpyrc + Mhc = 0
 R("R_SUCCt2_2"): + Msuccc + 2 Mhc = 0
 R("R_SUCCt2b"): - Msuccc - Mhc = 0
 R("R_THD2"): + Mnadphc - Mnadpc - Mnadhc + Mnadc + 2 Mhc = 0
 R("R_NADTRHD"): - Mnadphc + Mnadpc + Mnadhc - Mnadc = 0
\ R("R_O2t"): + Mo2c = 0
\ R("R_PIt"): - Mpic = 0
 R("R_RPI"): + Mru5pDc - Mr5pc = 0
 R("R_RPE"): + Mxu5pDc - Mru5pDc = 0

Bounds
 0 <= M13dpgc <= 10000
 0 <= M2pgc <= 10000
 0 <= M3pgc <= 10000
 0 <= M6pgcc <= 10000
 0 <= M6pglc <= 10000
 0 <= Macc <= 10000
 0 <= Maccoac <= 10000
 0 <= Mactpc <= 10000
 0 <= Madpc <= 10000
 0 <= Makgc <= 10000
 0 <= Mampc <= 10000
 0 <= Matpc <= 10000
 0 <= Mcitc <= 10000
 0 <= Mco2c <= 10000
 0 <= Mcoac <= 10000
 0 <= Mdhapc <= 10000
 0 <= Me4pc <= 10000
 0 <= Metohc <= 10000
 0 <= Mf6pc <= 10000
 0 <= Mfadc <= 10000
 0 <= Mfadh2c <= 10000
 0 <= Mfdpc <= 10000
 0 <= Mforc <= 10000
 0 <= Mfumc <= 10000
 0 <= Mg3pc <= 10000
 0 <= Mg6pc <= 10000
 0 <= Mglxc <= 10000
 0 <= Mh2oc <= 10000
 0 <= Mhc <= 10000
 0 <= Micitc <= 10000
 0 <= MlacDc <= 10000
 0 <= MmalLc <= 10000
 0 <= Mnadc <= 10000
 0 <= Mnadhc <= 10000
 0 <= Mnadpc <= 10000
 0 <= Mnadphc <= 10000
 0 <= Mo2c <= 10000
 0 <= Moaac <= 10000
 0 <= Mpepc <= 10000
 0 <= Mpic <= 10000
 0 <= Mpyrc <= 10000
 0 <= Mq8c <= 10000
 0 <= Mq8h2c <= 10000
 0 <= Mr5pc <= 10000
 0 <= Mru5pDc <= 10000
 0 <= Ms7pc <= 10000
 0 <= Msuccc <= 10000
 0 <= Msuccoac <= 10000
 0 <= Mxu5pDc <= 10000

End
